(set-logic ALL)
(declare-const message_body_VAR String)
(declare-const slack_url_VAR String)
(assert (not (< (str.len slack_url_VAR) 0)))
(assert (not (str.contains slack_url_VAR "\t")))
(assert (not (< (str.len slack_url_VAR) 0)))
(assert (= (+ 0 (str.indexof slack_url_VAR "\t" 0)) (- 1)))
(assert (not (< (str.len (str.++ "" slack_url_VAR)) 0)))
(assert (not (str.contains (str.++ "" slack_url_VAR) "\r")))
(assert (not (< (str.len (str.++ "" slack_url_VAR)) 0)))
(assert (= (+ 0 (str.indexof (str.++ "" slack_url_VAR) "\r" 0)) (- 1)))
(assert (not (< (str.len (str.++ "" (str.++ "" slack_url_VAR))) 0)))
(assert (not (str.contains (str.++ "" (str.++ "" slack_url_VAR)) "\n")))
(assert (not (< (str.len (str.++ "" (str.++ "" slack_url_VAR))) 0)))
(assert (= (+ 0 (str.indexof (str.++ "" (str.++ "" slack_url_VAR)) "\n" 0)) (- 1)))
(assert (not (< (str.len (str.++ "" (str.++ "" (str.++ "" slack_url_VAR)))) 0)))
(assert (str.contains (str.++ "" (str.++ "" (str.++ "" slack_url_VAR))) ":"))
(assert (not (< (str.len (str.++ "" (str.++ "" (str.++ "" slack_url_VAR)))) 0)))
(assert (> (+ 0 (str.indexof (str.++ "" (str.++ "" (str.++ "" slack_url_VAR))) ":" 0)) 0))
(assert (> (str.len (str.++ "" (str.++ "" (str.++ "" slack_url_VAR)))) 0))
(assert (> (str.len (str.++ "" (str.++ "" (str.++ "" slack_url_VAR)))) 0))
(assert (not (str.in.re (str.at (str.++ "" (str.++ "" (str.++ "" slack_url_VAR))) 0) (re.+ (re.union (re.range "A" "Z") (re.range "a" "z"))))))
(assert (= (str.substr (str.++ "" (str.++ "" (str.++ "" slack_url_VAR))) 0 (- 2 0)) "//"))
(assert (not (< (str.len (str.++ "" (str.++ "" (str.++ "" slack_url_VAR)))) 0)))
(assert (str.contains (str.substr (str.++ "" (str.++ "" (str.++ "" slack_url_VAR))) 2 (- (str.len (str.++ "" (str.++ "" (str.++ "" slack_url_VAR)))) 2)) "/"))
(assert (not (< (str.len (str.++ "" (str.++ "" (str.++ "" slack_url_VAR)))) 0)))
(assert (>= (+ 2 (str.indexof (str.substr (str.++ "" (str.++ "" (str.++ "" slack_url_VAR))) 2 (- (str.len (str.++ "" (str.++ "" (str.++ "" slack_url_VAR)))) 2)) "/" 0)) 0))
(assert (< (+ 2 (str.indexof (str.substr (str.++ "" (str.++ "" (str.++ "" slack_url_VAR))) 2 (- (str.len (str.++ "" (str.++ "" (str.++ "" slack_url_VAR)))) 2)) "/" 0)) (str.len (str.++ "" (str.++ "" (str.++ "" slack_url_VAR))))))
(assert (not (< (str.len (str.++ "" (str.++ "" (str.++ "" slack_url_VAR)))) 0)))
(assert (not (str.contains (str.substr (str.++ "" (str.++ "" (str.++ "" slack_url_VAR))) 2 (- (str.len (str.++ "" (str.++ "" (str.++ "" slack_url_VAR)))) 2)) "?")))
(assert (not (< (str.len (str.++ "" (str.++ "" (str.++ "" slack_url_VAR)))) 0)))
(assert (not (>= (+ 2 (str.indexof (str.substr (str.++ "" (str.++ "" (str.++ "" slack_url_VAR))) 2 (- (str.len (str.++ "" (str.++ "" (str.++ "" slack_url_VAR)))) 2)) "?" 0)) 0)))
(assert (not (< (str.len (str.++ "" (str.++ "" (str.++ "" slack_url_VAR)))) 0)))
(assert (not (str.contains (str.substr (str.++ "" (str.++ "" (str.++ "" slack_url_VAR))) 2 (- (str.len (str.++ "" (str.++ "" (str.++ "" slack_url_VAR)))) 2)) "#")))
(assert (not (< (str.len (str.++ "" (str.++ "" (str.++ "" slack_url_VAR)))) 0)))
(assert (not (>= (+ 2 (str.indexof (str.substr (str.++ "" (str.++ "" (str.++ "" slack_url_VAR))) 2 (- (str.len (str.++ "" (str.++ "" (str.++ "" slack_url_VAR)))) 2)) "#" 0)) 0)))
(assert (not (< (+ 2 (str.indexof (str.substr (str.++ "" (str.++ "" (str.++ "" slack_url_VAR))) 2 (- (str.len (str.++ "" (str.++ "" (str.++ "" slack_url_VAR)))) 2)) "/" 0)) 0)))
(assert (not (< (+ 2 (str.indexof (str.substr (str.++ "" (str.++ "" (str.++ "" slack_url_VAR))) 2 (- (str.len (str.++ "" (str.++ "" (str.++ "" slack_url_VAR)))) 2)) "/" 0)) 0)))
(assert (not (< (str.len (str.++ "" (str.++ "" (str.++ "" slack_url_VAR)))) 0)))
(assert (not (str.contains (str.substr (str.++ "" (str.++ "" (str.++ "" slack_url_VAR))) 2 (- (+ 2 (str.indexof (str.substr (str.++ "" (str.++ "" (str.++ "" slack_url_VAR))) 2 (- (str.len (str.++ "" (str.++ "" (str.++ "" slack_url_VAR)))) 2)) "/" 0)) 2)) "[")))
(assert (not (str.contains (str.substr (str.++ "" (str.++ "" (str.++ "" slack_url_VAR))) 2 (- (+ 2 (str.indexof (str.substr (str.++ "" (str.++ "" (str.++ "" slack_url_VAR))) 2 (- (str.len (str.++ "" (str.++ "" (str.++ "" slack_url_VAR)))) 2)) "/" 0)) 2)) "]")))
(assert (not (str.contains (str.substr (str.++ "" (str.++ "" (str.++ "" slack_url_VAR))) (+ 2 (str.indexof (str.substr (str.++ "" (str.++ "" (str.++ "" slack_url_VAR))) 2 (- (str.len (str.++ "" (str.++ "" (str.++ "" slack_url_VAR)))) 2)) "/" 0)) (- (str.len (str.++ "" (str.++ "" (str.++ "" slack_url_VAR)))) (+ 2 (str.indexof (str.substr (str.++ "" (str.++ "" (str.++ "" slack_url_VAR))) 2 (- (str.len (str.++ "" (str.++ "" (str.++ "" slack_url_VAR)))) 2)) "/" 0)))) "#")))
(assert (not (str.contains (str.substr (str.++ "" (str.++ "" (str.++ "" slack_url_VAR))) (+ 2 (str.indexof (str.substr (str.++ "" (str.++ "" (str.++ "" slack_url_VAR))) 2 (- (str.len (str.++ "" (str.++ "" (str.++ "" slack_url_VAR)))) 2)) "/" 0)) (- (str.len (str.++ "" (str.++ "" (str.++ "" slack_url_VAR)))) (+ 2 (str.indexof (str.substr (str.++ "" (str.++ "" (str.++ "" slack_url_VAR))) 2 (- (str.len (str.++ "" (str.++ "" (str.++ "" slack_url_VAR)))) 2)) "/" 0)))) "?")))
(assert (not (not (= (str.substr (str.++ "" (str.++ "" (str.++ "" slack_url_VAR))) 2 (- (+ 2 (str.indexof (str.substr (str.++ "" (str.++ "" (str.++ "" slack_url_VAR))) 2 (- (str.len (str.++ "" (str.++ "" (str.++ "" slack_url_VAR)))) 2)) "/" 0)) 2)) ""))))
(assert (not (str.contains (str.substr (str.++ "" (str.++ "" (str.++ "" slack_url_VAR))) (+ 2 (str.indexof (str.substr (str.++ "" (str.++ "" (str.++ "" slack_url_VAR))) 2 (- (str.len (str.++ "" (str.++ "" (str.++ "" slack_url_VAR)))) 2)) "/" 0)) (- (str.len (str.++ "" (str.++ "" (str.++ "" slack_url_VAR)))) (+ 2 (str.indexof (str.substr (str.++ "" (str.++ "" (str.++ "" slack_url_VAR))) 2 (- (str.len (str.++ "" (str.++ "" (str.++ "" slack_url_VAR)))) 2)) "/" 0)))) ";")))
(assert (not (< (str.len (str.substr (str.++ "" (str.++ "" (str.++ "" slack_url_VAR))) 2 (- (+ 2 (str.indexof (str.substr (str.++ "" (str.++ "" (str.++ "" slack_url_VAR))) 2 (- (str.len (str.++ "" (str.++ "" (str.++ "" slack_url_VAR)))) 2)) "/" 0)) 2))) 0)))
(assert (not (str.contains (str.substr (str.++ "" (str.++ "" (str.++ "" slack_url_VAR))) 2 (- (+ 2 (str.indexof (str.substr (str.++ "" (str.++ "" (str.++ "" slack_url_VAR))) 2 (- (str.len (str.++ "" (str.++ "" (str.++ "" slack_url_VAR)))) 2)) "/" 0)) 2)) ":")))
(assert (< (str.len (str.substr (str.++ "" (str.++ "" (str.++ "" slack_url_VAR))) 2 (- (+ 2 (str.indexof (str.substr (str.++ "" (str.++ "" (str.++ "" slack_url_VAR))) 2 (- (str.len (str.++ "" (str.++ "" (str.++ "" slack_url_VAR)))) 2)) "/" 0)) 2))) 0))
(check-sat)
(get-value (message_body_VAR))
(get-value (slack_url_VAR))
